<?xml version = "1.0" encoding="UTF-8" standalone="yes"?>
<CPLEXSolution version="1.2">
 <header
   problemName="IloCplex"
   solutionName="p0"
   solutionIndex="-1"
   objectiveValue="586987520"
   solutionTypeValue="3"
   solutionTypeString="primal"
   solutionStatusValue="127"
   solutionStatusString="integer feasible solution"
   solutionMethodString="mip"
   primalFeasible="0"
   dualFeasible="0"
   writeLevel="3"/>
 <quality
   epInt="1.0000000000000001e-05"
   epRHS="9.9999999999999995e-07"
   maxIntInfeas="0"
   maxPrimalInfeas="0"
   maxX="256"
   maxSlack="256"/>
 <variables>
  <variable index="0" value="256"/>
  <variable index="4" value="256"/>
  <variable index="5" value="256"/>
  <variable index="6" value="256"/>
  <variable index="8" value="256"/>
  <variable index="9" value="256"/>
  <variable index="10" value="256"/>
  <variable index="11" value="256"/>
  <variable index="12" value="256"/>
  <variable index="14" value="256"/>
  <variable index="15" value="256"/>
  <variable index="16" value="256"/>
  <variable index="17" value="256"/>
  <variable index="18" value="256"/>
  <variable index="19" value="256"/>
  <variable index="20" value="256"/>
  <variable index="21" value="256"/>
  <variable index="102" value="1"/>
  <variable index="294" value="1"/>
  <variable index="565" value="1"/>
  <variable index="840" value="1"/>
  <variable index="1089" value="1"/>
  <variable index="1307" value="1"/>
  <variable index="1572" value="1"/>
  <variable index="1869" value="1"/>
  <variable index="2155" value="1"/>
  <variable index="2354" value="1"/>
  <variable index="2592" value="1"/>
  <variable index="2867" value="1"/>
  <variable index="3133" value="1"/>
  <variable index="3426" value="1"/>
  <variable index="3663" value="1"/>
  <variable index="3913" value="1"/>
  <variable index="4182" value="1"/>
  <variable index="4381" value="1"/>
  <variable index="4667" value="1"/>
  <variable index="4969" value="1"/>
  <variable index="5188" value="1"/>
  <variable index="5477" value="1"/>
  <variable index="5687" value="1"/>
  <variable index="5927" value="1"/>
  <variable index="6237" value="1"/>
  <variable index="6484" value="1"/>
  <variable index="6732" value="1"/>
  <variable index="6995" value="1"/>
  <variable index="7253" value="1"/>
  <variable index="7502" value="1"/>
  <variable index="7770" value="1"/>
  <variable index="8040" value="1"/>
  <variable index="8234" value="1"/>
  <variable index="8544" value="1"/>
  <variable index="8817" value="1"/>
  <variable index="9057" value="1"/>
  <variable index="9305" value="1"/>
  <variable index="9588" value="1"/>
  <variable index="9784" value="1"/>
  <variable index="10064" value="1"/>
  <variable index="10300" value="1"/>
  <variable index="10543" value="1"/>
  <variable index="10846" value="1"/>
  <variable index="11074" value="1"/>
  <variable index="11309" value="1"/>
  <variable index="11557" value="1"/>
  <variable index="11822" value="1"/>
  <variable index="12131" value="1"/>
  <variable index="12403" value="1"/>
  <variable index="12647" value="1"/>
  <variable index="12917" value="1"/>
  <variable index="13105" value="1"/>
  <variable index="13418" value="1"/>
  <variable index="13642" value="1"/>
  <variable index="13935" value="1"/>
  <variable index="14144" value="1"/>
  <variable index="14370" value="1"/>
  <variable index="14620" value="1"/>
  <variable index="14915" value="1"/>
  <variable index="15186" value="1"/>
  <variable index="15455" value="1"/>
  <variable index="15656" value="1"/>
  <variable index="15943" value="1"/>
  <variable index="16242" value="1"/>
  <variable index="16414" value="1"/>
  <variable index="16721" value="1"/>
  <variable index="17005" value="1"/>
  <variable index="17227" value="1"/>
  <variable index="17465" value="1"/>
  <variable index="17755" value="1"/>
  <variable index="18008" value="1"/>
  <variable index="18220" value="1"/>
  <variable index="18463" value="1"/>
  <variable index="18723" value="1"/>
  <variable index="19007" value="1"/>
  <variable index="19254" value="1"/>
  <variable index="19504" value="1"/>
  <variable index="19782" value="1"/>
  <variable index="20026" value="1"/>
  <variable index="20250" value="1"/>
  <variable index="20513" value="1"/>
  <variable index="20844" value="1"/>
  <variable index="21035" value="1"/>
  <variable index="21358" value="1"/>
  <variable index="21573" value="1"/>
  <variable index="21860" value="1"/>
  <variable index="22078" value="1"/>
  <variable index="22384" value="1"/>
  <variable index="22620" value="1"/>
  <variable index="22836" value="1"/>
  <variable index="23127" value="1"/>
  <variable index="23337" value="1"/>
  <variable index="23670" value="1"/>
  <variable index="23927" value="1"/>
  <variable index="24184" value="1"/>
  <variable index="24441" value="1"/>
  <variable index="24698" value="1"/>
  <variable index="24955" value="1"/>
  <variable index="25212" value="1"/>
  <variable index="25469" value="1"/>
  <variable index="25726" value="1"/>
  <variable index="25983" value="1"/>
  <variable index="26240" value="1"/>
  <variable index="26497" value="1"/>
  <variable index="26754" value="1"/>
  <variable index="27011" value="1"/>
  <variable index="27268" value="1"/>
  <variable index="27525" value="1"/>
  <variable index="27782" value="1"/>
  <variable index="28039" value="1"/>
  <variable index="28296" value="1"/>
  <variable index="28553" value="1"/>
  <variable index="28810" value="1"/>
  <variable index="29067" value="1"/>
  <variable index="29324" value="1"/>
  <variable index="29581" value="1"/>
  <variable index="29838" value="1"/>
  <variable index="30095" value="1"/>
  <variable index="30352" value="1"/>
  <variable index="30609" value="1"/>
  <variable index="30866" value="1"/>
  <variable index="31123" value="1"/>
  <variable index="31380" value="1"/>
  <variable index="31637" value="1"/>
  <variable index="31894" value="1"/>
  <variable index="32151" value="1"/>
  <variable index="32408" value="1"/>
  <variable index="32665" value="1"/>
  <variable index="32922" value="1"/>
  <variable index="33179" value="1"/>
  <variable index="33436" value="1"/>
  <variable index="33693" value="1"/>
  <variable index="33950" value="1"/>
  <variable index="34207" value="1"/>
  <variable index="34464" value="1"/>
  <variable index="34721" value="1"/>
  <variable index="34978" value="1"/>
  <variable index="35235" value="1"/>
  <variable index="35492" value="1"/>
  <variable index="35749" value="1"/>
  <variable index="36006" value="1"/>
  <variable index="36263" value="1"/>
  <variable index="36520" value="1"/>
  <variable index="36777" value="1"/>
  <variable index="37034" value="1"/>
  <variable index="37291" value="1"/>
  <variable index="37548" value="1"/>
  <variable index="37805" value="1"/>
  <variable index="38062" value="1"/>
  <variable index="38319" value="1"/>
  <variable index="38576" value="1"/>
  <variable index="38833" value="1"/>
  <variable index="39090" value="1"/>
  <variable index="39347" value="1"/>
  <variable index="39604" value="1"/>
  <variable index="39861" value="1"/>
  <variable index="40118" value="1"/>
  <variable index="40375" value="1"/>
  <variable index="40632" value="1"/>
  <variable index="40889" value="1"/>
  <variable index="41146" value="1"/>
  <variable index="41403" value="1"/>
  <variable index="41660" value="1"/>
  <variable index="41917" value="1"/>
  <variable index="42174" value="1"/>
  <variable index="42431" value="1"/>
  <variable index="42688" value="1"/>
  <variable index="42945" value="1"/>
  <variable index="43202" value="1"/>
  <variable index="43459" value="1"/>
  <variable index="43716" value="1"/>
  <variable index="43973" value="1"/>
  <variable index="44230" value="1"/>
  <variable index="44487" value="1"/>
  <variable index="44744" value="1"/>
  <variable index="45001" value="1"/>
  <variable index="45258" value="1"/>
  <variable index="45515" value="1"/>
  <variable index="45772" value="1"/>
  <variable index="46029" value="1"/>
  <variable index="46286" value="1"/>
  <variable index="46543" value="1"/>
  <variable index="46800" value="1"/>
  <variable index="47057" value="1"/>
  <variable index="47314" value="1"/>
  <variable index="47571" value="1"/>
  <variable index="47828" value="1"/>
  <variable index="48085" value="1"/>
  <variable index="48342" value="1"/>
  <variable index="48599" value="1"/>
  <variable index="48856" value="1"/>
  <variable index="49113" value="1"/>
  <variable index="49370" value="1"/>
  <variable index="49627" value="1"/>
  <variable index="49884" value="1"/>
  <variable index="50141" value="1"/>
  <variable index="50398" value="1"/>
  <variable index="50655" value="1"/>
  <variable index="50912" value="1"/>
  <variable index="51169" value="1"/>
  <variable index="51426" value="1"/>
  <variable index="51683" value="1"/>
  <variable index="51940" value="1"/>
  <variable index="52197" value="1"/>
  <variable index="52454" value="1"/>
  <variable index="52711" value="1"/>
  <variable index="52968" value="1"/>
  <variable index="53225" value="1"/>
  <variable index="53482" value="1"/>
  <variable index="53739" value="1"/>
  <variable index="53996" value="1"/>
  <variable index="54253" value="1"/>
  <variable index="54510" value="1"/>
  <variable index="54767" value="1"/>
  <variable index="55024" value="1"/>
  <variable index="55281" value="1"/>
  <variable index="55538" value="1"/>
  <variable index="55795" value="1"/>
  <variable index="56052" value="1"/>
  <variable index="56309" value="1"/>
  <variable index="56566" value="1"/>
  <variable index="56823" value="1"/>
  <variable index="57080" value="1"/>
  <variable index="57337" value="1"/>
  <variable index="57594" value="1"/>
  <variable index="57851" value="1"/>
  <variable index="58108" value="1"/>
  <variable index="58365" value="1"/>
  <variable index="58622" value="1"/>
  <variable index="58879" value="1"/>
  <variable index="59136" value="1"/>
  <variable index="59393" value="1"/>
  <variable index="59650" value="1"/>
  <variable index="59907" value="1"/>
  <variable index="60164" value="1"/>
  <variable index="60421" value="1"/>
  <variable index="60678" value="1"/>
  <variable index="60935" value="1"/>
  <variable index="61192" value="1"/>
  <variable index="61449" value="1"/>
  <variable index="61706" value="1"/>
  <variable index="61963" value="1"/>
  <variable index="62220" value="1"/>
  <variable index="62477" value="1"/>
  <variable index="62734" value="1"/>
  <variable index="62991" value="1"/>
  <variable index="63248" value="1"/>
  <variable index="63505" value="1"/>
  <variable index="63762" value="1"/>
  <variable index="64019" value="1"/>
  <variable index="64276" value="1"/>
  <variable index="64533" value="1"/>
  <variable index="64790" value="1"/>
  <variable index="65047" value="1"/>
  <variable index="65304" value="1"/>
  <variable index="65561" value="1"/>
  <variable index="65565" value="1"/>
  <variable index="65566" value="1"/>
  <variable index="65567" value="1"/>
  <variable index="65569" value="1"/>
  <variable index="65570" value="1"/>
  <variable index="65571" value="1"/>
  <variable index="65572" value="1"/>
  <variable index="65573" value="1"/>
  <variable index="65575" value="1"/>
  <variable index="65576" value="1"/>
  <variable index="65577" value="1"/>
  <variable index="65578" value="1"/>
  <variable index="65579" value="1"/>
  <variable index="65580" value="1"/>
  <variable index="65581" value="1"/>
  <variable index="65582" value="1"/>
 </variables>
</CPLEXSolution>
